    mass 1 72.0634
    mass 2  58.0366

pair_style hybrid/overlay gayberne 1 1 -3 14 coul/cut/offcentre 14 7 1 1.931251 0.539650 1.011545 0.0668 1 0.446082 0.057700 -0.000000 0.6529 1 -0.712230 1.072980 0.000000 -0.4227 1 -0.653529 -1.140853 0.000000 -0.2970 2 -0.422955 -1.245763 0.000000 -0.313 2 0.527142 0.083536 0.000000 0.716 2 -0.856806 0.981621 0.000000 -0.403 


# Pair coefficients: Coulomb and Gay-Berne parameters.
pair_coeff * * coul/cut/offcentre 14
pair_coeff 1 2 gayberne 1.03684 3.4086 0.97313 1 0.36835 0.53249 0.53249 1 14.
pair_coeff 1 1 gayberne 1.0627 3.4740 0.97313 1 0.36835 0.97313 1 0.36835 14.
pair_coeff 2 2 gayberne 1.0116 3.3432 0.53249 0.53249 1 0.53249 0.53249 1 14.

    bond_style ellipsoid
    special_bonds lj/coul 0.0 0.2 0.5

    bond_coeff 1     poly 2 0   -0.90854   -3.67091    21.0619    3.46926      cos  2 0   0.468392     1.5682    0.77494          0      cos  2 0   0.051231    1.55637   0.368657          0      cos  2 0   -0.63579    1.57002   -0.40024          0      cos  1 0  -0.291573       1.57      cos  2 0 -0.0454135    1.56739  -0.159876          0      cos  2 0  0.0689315    1.56411   0.326725          0      cos  2 0 -0.0380405    1.56469  -0.222524          0      cos  1 0   0.214176    1.57072      cos  2 0    0.06476      1.555   0.672605          0      poly 2 0    0.63728    2.15358     35.456   0.284144      cos  1 0    1.06641     4.7121      poly 0 0      poly 2 0    1.09113    2.29165    13.2812    1.04108      poly 2 0    1.29123    1.05776    4.62779   0.409837      poly 2 0    1.71005    1.02317    12.3945 -0.0340389

