mass 1 72.0634

# MOLC parameters.
pair_coeff 1 1 1.0627 3.4740 0.97313 1 0.36835 4 &
1.931251    0.539650    1.011545    0.0668 &
0.446082    0.057700   -0.000000    0.6529 &
-0.712230    1.072980    0.000000   -0.4227 &
-0.653529   -1.140853    0.000000   -0.2970
mass 2  58.0366

# MOLC parameters.
pair_coeff 2 2 1.0116 3.3432 0.53249 0.53249 1 3 &
-0.422955   -1.245763    0.000000   -0.313 &
0.527142    0.083536    0.000000    0.716 &
-0.856806    0.981621    0.000000   -0.403

# 1-2 Bonded potential.
bond_coeff 1 &
poly 2 0   -0.90854   -3.67091    21.0619    3.46926  &
cos  2 0   0.468392     1.5682    0.77494          0  &
cos  2 0   0.051231    1.55637   0.368657          0  &
cos  2 0   -0.63579    1.57002   -0.40024          0  &
cos  1 0  -0.291573       1.57  &
cos  2 0 -0.0454135    1.56739  -0.159876          0  &
cos  2 0  0.0689315    1.56411   0.326725          0  &
cos  2 0 -0.0380405    1.56469  -0.222524          0  &
cos  1 0   0.214176    1.57072  &
cos  2 0    0.06476      1.555   0.672605          0  &
poly 2 0    0.63728    2.15358     35.456   0.284144  &
cos  1 0    1.06641     4.7121  &
poly 0 0  &
poly 2 0    1.09113    2.29165    13.2812    1.04108  &
poly 2 0    1.29123    1.05776    4.62779   0.409837  &
poly 2 0    1.71005    1.02317    12.3945 -0.0340389

mass 3  40.4364

# MOLC parameters.
# epsilon0, sigma0, eps_x, eps_y, eps_z, n_charges, (xi, yi, zi, qi)_ntimes
pair_coeff 3 3 0.18519 3.1589 1 1 1 3 &
0.00000  0.154600  0.0  -1.1128 &
0.75695  0.585882  0.0   0.5564 &
-0.75695  0.585882  0.0   0.5564

# Force field setup.
kspace_style pppm/molc 1e-4

